language Essence 1.3

letting can_fly be
        relation((1, 3), (1, 9), (1, 10), (1, 11), (1, 12), (1, 14), (1, 15), (1, 16), (1, 17), (1, 18), (1, 19),
                 (1, 20), (1, 22), (1, 23), (1, 26), (1, 27), (1, 28), (2, 3), (2, 6), (2, 7), (2, 8), (2, 9), (2, 11),
                 (2, 12), (2, 14), (2, 15), (2, 16), (2, 21), (2, 22), (2, 23), (2, 24), (2, 25), (2, 28), (3, 4),
                 (3, 8), (3, 9), (3, 12), (3, 18), (3, 20), (3, 21), (3, 22), (3, 25), (3, 26), (3, 27), (3, 29),
                 (4, 1), (4, 2), (4, 3), (4, 9), (4, 11), (4, 12), (4, 13), (4, 14), (4, 19), (4, 20), (4, 22), (4, 24),
                 (4, 28), (4, 29), (5, 1), (5, 4), (5, 7), (5, 9), (5, 13), (5, 15), (5, 17), (5, 19), (5, 20), (5, 21),
                 (5, 23), (5, 24), (5, 25), (5, 26), (5, 27), (5, 29), (6, 2), (6, 3), (6, 4), (6, 5), (6, 7), (6, 8),
                 (6, 14), (6, 15), (6, 16), (6, 17), (6, 18), (6, 19), (6, 20), (6, 22), (6, 24), (6, 27), (7, 2),
                 (7, 3), (7, 4), (7, 9), (7, 11), (7, 13), (7, 14), (7, 17), (7, 20), (7, 22), (7, 24), (7, 26),
                 (7, 27), (7, 28), (7, 29), (8, 1), (8, 2), (8, 4), (8, 6), (8, 8), (8, 10), (8, 11), (8, 14), (8, 15),
                 (8, 16), (8, 17), (8, 19), (8, 21), (8, 22), (8, 24), (8, 25), (8, 27), (8, 28), (8, 29), (9, 5),
                 (9, 10), (9, 11), (9, 14), (9, 15), (9, 17), (9, 19), (9, 20), (9, 21), (9, 25), (9, 28), (10, 4),
                 (10, 6), (10, 15), (10, 20), (10, 21), (10, 22), (10, 26), (10, 27), (11, 4), (11, 6), (11, 7),
                 (11, 10), (11, 11), (11, 15), (11, 21), (11, 22), (11, 24), (11, 25), (11, 26), (11, 27), (11, 28),
                 (12, 1), (12, 3), (12, 4), (12, 6), (12, 7), (12, 8), (12, 12), (12, 15), (12, 16), (12, 18), (12, 19),
                 (12, 20), (12, 23), (12, 24), (12, 26), (12, 28), (13, 1), (13, 2), (13, 3), (13, 4), (13, 6), (13, 7),
                 (13, 10), (13, 11), (13, 12), (13, 13), (13, 14), (13, 16), (13, 18), (13, 19), (13, 24), (13, 25),
                 (13, 27))
$ Visualisation for can_fly
$  1  3
$  1  9
$  1 10
$  1 11
$  1 12
$  1 14
$  1 15
$  1 16
$  1 17
$  1 18
$  1 19
$  1 20
$  1 22
$  1 23
$  1 26
$  1 27
$  1 28
$  2  3
$  2  6
$  2  7
$  2  8
$  2  9
$  2 11
$  2 12
$  2 14
$  2 15
$  2 16
$  2 21
$  2 22
$  2 23
$  2 24
$  2 25
$  2 28
$  3  4
$  3  8
$  3  9
$  3 12
$  3 18
$  3 20
$  3 21
$  3 22
$  3 25
$  3 26
$  3 27
$  3 29
$  4  1
$  4  2
$  4  3
$  4  9
$  4 11
$  4 12
$  4 13
$  4 14
$  4 19
$  4 20
$  4 22
$  4 24
$  4 28
$  4 29
$  5  1
$  5  4
$  5  7
$  5  9
$  5 13
$  5 15
$  5 17
$  5 19
$  5 20
$  5 21
$  5 23
$  5 24
$  5 25
$  5 26
$  5 27
$  5 29
$  6  2
$  6  3
$  6  4
$  6  5
$  6  7
$  6  8
$  6 14
$  6 15
$  6 16
$  6 17
$  6 18
$  6 19
$  6 20
$  6 22
$  6 24
$  6 27
$  7  2
$  7  3
$  7  4
$  7  9
$  7 11
$  7 13
$  7 14
$  7 17
$  7 20
$  7 22
$  7 24
$  7 26
$  7 27
$  7 28
$  7 29
$  8  1
$  8  2
$  8  4
$  8  6
$  8  8
$  8 10
$  8 11
$  8 14
$  8 15
$  8 16
$  8 17
$  8 19
$  8 21
$  8 22
$  8 24
$  8 25
$  8 27
$  8 28
$  8 29
$  9  5
$  9 10
$  9 11
$  9 14
$  9 15
$  9 17
$  9 19
$  9 20
$  9 21
$  9 25
$  9 28
$ 10  4
$ 10  6
$ 10 15
$ 10 20
$ 10 21
$ 10 22
$ 10 26
$ 10 27
$ 11  4
$ 11  6
$ 11  7
$ 11 10
$ 11 11
$ 11 15
$ 11 21
$ 11 22
$ 11 24
$ 11 25
$ 11 26
$ 11 27
$ 11 28
$ 12  1
$ 12  3
$ 12  4
$ 12  6
$ 12  7
$ 12  8
$ 12 12
$ 12 15
$ 12 16
$ 12 18
$ 12 19
$ 12 20
$ 12 23
$ 12 24
$ 12 26
$ 12 28
$ 13  1
$ 13  2
$ 13  3
$ 13  4
$ 13  6
$ 13  7
$ 13 10
$ 13 11
$ 13 12
$ 13 13
$ 13 14
$ 13 16
$ 13 18
$ 13 19
$ 13 24
$ 13 25
$ 13 27

letting carry_in be
        function(1 --> 21, 2 --> 1, 3 --> 11, 4 --> 4, 5 --> 15, 6 --> 3, 7 --> 17, 8 --> 16, 9 --> 22, 10 --> 6,
                 11 --> 2, 12 --> 5, 13 --> 18)
letting maint be {2, 6, 7, 9, 10, 12, 13, 14, 15, 16, 20, 24, 27, 28}
letting maint_freq be 5
letting n_flights be 29
letting n_planes be 13
letting network be
        relation((1, 1), (1, 2), (1, 4), (1, 5), (1, 6), (1, 7), (1, 9), (1, 15), (1, 16), (1, 17), (1, 19), (1, 22),
                 (1, 24), (1, 26), (2, 1), (2, 2), (2, 4), (2, 5), (2, 6), (2, 8), (2, 11), (2, 17), (2, 18), (2, 19),
                 (2, 20), (2, 21), (2, 23), (2, 24), (2, 26), (3, 1), (3, 4), (3, 7), (3, 8), (3, 14), (3, 17), (3, 18),
                 (3, 20), (3, 21), (3, 22), (3, 24), (3, 25), (3, 26), (4, 2), (4, 4), (4, 5), (4, 7), (4, 8), (4, 9),
                 (4, 13), (4, 14), (4, 16), (4, 17), (4, 18), (4, 20), (4, 21), (4, 22), (4, 23), (4, 24), (4, 27),
                 (4, 28), (4, 29), (5, 1), (5, 2), (5, 3), (5, 5), (5, 7), (5, 10), (5, 13), (5, 15), (5, 20), (5, 21),
                 (5, 22), (5, 24), (5, 25), (5, 28), (5, 29), (6, 3), (6, 4), (6, 5), (6, 6), (6, 7), (6, 8), (6, 9),
                 (6, 13), (6, 14), (6, 16), (6, 18), (6, 19), (6, 22), (6, 24), (6, 25), (6, 26), (6, 29), (7, 4),
                 (7, 5), (7, 8), (7, 9), (7, 10), (7, 11), (7, 17), (7, 18), (7, 19), (7, 20), (7, 21), (7, 22),
                 (7, 24), (7, 25), (7, 26), (7, 28), (8, 5), (8, 6), (8, 7), (8, 8), (8, 9), (8, 10), (8, 11), (8, 13),
                 (8, 15), (8, 16), (8, 17), (8, 18), (8, 19), (8, 26), (8, 27), (8, 28), (8, 29), (9, 2), (9, 7),
                 (9, 8), (9, 9), (9, 10), (9, 15), (9, 16), (9, 18), (9, 24), (9, 26), (9, 28), (10, 1), (10, 3),
                 (10, 5), (10, 6), (10, 9), (10, 10), (10, 11), (10, 16), (10, 17), (10, 18), (10, 19), (10, 22),
                 (10, 23), (10, 24), (10, 25), (10, 28), (11, 2), (11, 3), (11, 5), (11, 6), (11, 7), (11, 9), (11, 10),
                 (11, 11), (11, 14), (11, 15), (11, 16), (11, 18), (11, 22), (11, 23), (11, 26), (11, 28), (12, 3),
                 (12, 5), (12, 6), (12, 10), (12, 14), (12, 15), (12, 18), (12, 21), (12, 22), (12, 25), (12, 26),
                 (12, 28), (13, 1), (13, 4), (13, 5), (13, 7), (13, 8), (13, 10), (13, 12), (13, 14), (13, 15),
                 (13, 20), (13, 21), (13, 22), (13, 23), (13, 24), (13, 26), (13, 27), (14, 1), (14, 2), (14, 3),
                 (14, 4), (14, 6), (14, 7), (14, 9), (14, 12), (14, 13), (14, 18), (14, 19), (14, 20), (14, 21),
                 (14, 23), (14, 24), (14, 25), (14, 26), (14, 28), (15, 1), (15, 6), (15, 7), (15, 9), (15, 15),
                 (15, 16), (15, 17), (15, 18), (15, 20), (15, 21), (15, 22), (15, 29), (16, 2), (16, 4), (16, 5),
                 (16, 7), (16, 9), (16, 11), (16, 13), (16, 23), (16, 24), (16, 25), (16, 26), (16, 27), (17, 3),
                 (17, 4), (17, 5), (17, 6), (17, 7), (17, 10), (17, 11), (17, 13), (17, 17), (17, 21), (17, 24),
                 (17, 26), (17, 27), (17, 28), (17, 29), (18, 1), (18, 2), (18, 3), (18, 5), (18, 7), (18, 8), (18, 9),
                 (18, 10), (18, 12), (18, 14), (18, 20), (18, 21), (18, 22), (18, 23), (18, 25), (18, 26), (18, 28),
                 (18, 29), (19, 1), (19, 2), (19, 3), (19, 5), (19, 7), (19, 9), (19, 10), (19, 13), (19, 16), (19, 18),
                 (19, 19), (19, 20), (19, 22), (19, 23), (19, 24), (19, 26), (19, 27), (19, 28), (20, 1), (20, 2),
                 (20, 7), (20, 8), (20, 9), (20, 10), (20, 15), (20, 19), (20, 20), (20, 22), (20, 25), (20, 26),
                 (20, 29), (21, 1), (21, 3), (21, 5), (21, 7), (21, 9), (21, 11), (21, 13), (21, 14), (21, 18),
                 (21, 19), (21, 20), (21, 22), (21, 23), (21, 24), (21, 25), (21, 26), (21, 27), (21, 28), (22, 2),
                 (22, 3), (22, 4), (22, 9), (22, 11), (22, 12), (22, 13), (22, 14), (22, 15), (22, 22), (22, 23),
                 (22, 29), (23, 3), (23, 4), (23, 6), (23, 7), (23, 8), (23, 11), (23, 12), (23, 13), (23, 15),
                 (23, 17), (23, 18), (23, 19), (23, 20), (23, 21), (23, 24), (23, 25), (23, 26), (23, 27), (23, 28),
                 (24, 2), (24, 5), (24, 7), (24, 10), (24, 11), (24, 12), (24, 13), (24, 16), (24, 17), (24, 18),
                 (24, 22), (24, 23), (24, 25), (25, 1), (25, 2), (25, 6), (25, 7), (25, 8), (25, 10), (25, 11),
                 (25, 12), (25, 13), (25, 14), (25, 16), (25, 17), (25, 18), (25, 20), (25, 21), (25, 24), (25, 25),
                 (25, 29), (26, 2), (26, 8), (26, 9), (26, 13), (26, 14), (26, 18), (26, 19), (26, 22), (26, 23),
                 (26, 24), (26, 25), (26, 27), (26, 29), (27, 1), (27, 3), (27, 7), (27, 10), (27, 11), (27, 12),
                 (27, 15), (27, 16), (27, 20), (27, 22), (27, 23), (27, 26), (27, 28), (27, 29), (28, 1), (28, 2),
                 (28, 3), (28, 4), (28, 7), (28, 9), (28, 11), (28, 12), (28, 14), (28, 17), (28, 18), (28, 20),
                 (28, 21), (28, 22), (28, 23), (28, 24), (28, 25), (28, 29), (29, 2), (29, 5), (29, 10), (29, 11),
                 (29, 12), (29, 13), (29, 14), (29, 15), (29, 19), (29, 21), (29, 23), (29, 24), (29, 28), (29, 29))
$ Visualisation for network
$  1  1
$  1  2
$  1  4
$  1  5
$  1  6
$  1  7
$  1  9
$  1 15
$  1 16
$  1 17
$  1 19
$  1 22
$  1 24
$  1 26
$  2  1
$  2  2
$  2  4
$  2  5
$  2  6
$  2  8
$  2 11
$  2 17
$  2 18
$  2 19
$  2 20
$  2 21
$  2 23
$  2 24
$  2 26
$  3  1
$  3  4
$  3  7
$  3  8
$  3 14
$  3 17
$  3 18
$  3 20
$  3 21
$  3 22
$  3 24
$  3 25
$  3 26
$  4  2
$  4  4
$  4  5
$  4  7
$  4  8
$  4  9
$  4 13
$  4 14
$  4 16
$  4 17
$  4 18
$  4 20
$  4 21
$  4 22
$  4 23
$  4 24
$  4 27
$  4 28
$  4 29
$  5  1
$  5  2
$  5  3
$  5  5
$  5  7
$  5 10
$  5 13
$  5 15
$  5 20
$  5 21
$  5 22
$  5 24
$  5 25
$  5 28
$  5 29
$  6  3
$  6  4
$  6  5
$  6  6
$  6  7
$  6  8
$  6  9
$  6 13
$  6 14
$  6 16
$  6 18
$  6 19
$  6 22
$  6 24
$  6 25
$  6 26
$  6 29
$  7  4
$  7  5
$  7  8
$  7  9
$  7 10
$  7 11
$  7 17
$  7 18
$  7 19
$  7 20
$  7 21
$  7 22
$  7 24
$  7 25
$  7 26
$  7 28
$  8  5
$  8  6
$  8  7
$  8  8
$  8  9
$  8 10
$  8 11
$  8 13
$  8 15
$  8 16
$  8 17
$  8 18
$  8 19
$  8 26
$  8 27
$  8 28
$  8 29
$  9  2
$  9  7
$  9  8
$  9  9
$  9 10
$  9 15
$  9 16
$  9 18
$  9 24
$  9 26
$  9 28
$ 10  1
$ 10  3
$ 10  5
$ 10  6
$ 10  9
$ 10 10
$ 10 11
$ 10 16
$ 10 17
$ 10 18
$ 10 19
$ 10 22
$ 10 23
$ 10 24
$ 10 25
$ 10 28
$ 11  2
$ 11  3
$ 11  5
$ 11  6
$ 11  7
$ 11  9
$ 11 10
$ 11 11
$ 11 14
$ 11 15
$ 11 16
$ 11 18
$ 11 22
$ 11 23
$ 11 26
$ 11 28
$ 12  3
$ 12  5
$ 12  6
$ 12 10
$ 12 14
$ 12 15
$ 12 18
$ 12 21
$ 12 22
$ 12 25
$ 12 26
$ 12 28
$ 13  1
$ 13  4
$ 13  5
$ 13  7
$ 13  8
$ 13 10
$ 13 12
$ 13 14
$ 13 15
$ 13 20
$ 13 21
$ 13 22
$ 13 23
$ 13 24
$ 13 26
$ 13 27
$ 14  1
$ 14  2
$ 14  3
$ 14  4
$ 14  6
$ 14  7
$ 14  9
$ 14 12
$ 14 13
$ 14 18
$ 14 19
$ 14 20
$ 14 21
$ 14 23
$ 14 24
$ 14 25
$ 14 26
$ 14 28
$ 15  1
$ 15  6
$ 15  7
$ 15  9
$ 15 15
$ 15 16
$ 15 17
$ 15 18
$ 15 20
$ 15 21
$ 15 22
$ 15 29
$ 16  2
$ 16  4
$ 16  5
$ 16  7
$ 16  9
$ 16 11
$ 16 13
$ 16 23
$ 16 24
$ 16 25
$ 16 26
$ 16 27
$ 17  3
$ 17  4
$ 17  5
$ 17  6
$ 17  7
$ 17 10
$ 17 11
$ 17 13
$ 17 17
$ 17 21
$ 17 24
$ 17 26
$ 17 27
$ 17 28
$ 17 29
$ 18  1
$ 18  2
$ 18  3
$ 18  5
$ 18  7
$ 18  8
$ 18  9
$ 18 10
$ 18 12
$ 18 14
$ 18 20
$ 18 21
$ 18 22
$ 18 23
$ 18 25
$ 18 26
$ 18 28
$ 18 29
$ 19  1
$ 19  2
$ 19  3
$ 19  5
$ 19  7
$ 19  9
$ 19 10
$ 19 13
$ 19 16
$ 19 18
$ 19 19
$ 19 20
$ 19 22
$ 19 23
$ 19 24
$ 19 26
$ 19 27
$ 19 28
$ 20  1
$ 20  2
$ 20  7
$ 20  8
$ 20  9
$ 20 10
$ 20 15
$ 20 19
$ 20 20
$ 20 22
$ 20 25
$ 20 26
$ 20 29
$ 21  1
$ 21  3
$ 21  5
$ 21  7
$ 21  9
$ 21 11
$ 21 13
$ 21 14
$ 21 18
$ 21 19
$ 21 20
$ 21 22
$ 21 23
$ 21 24
$ 21 25
$ 21 26
$ 21 27
$ 21 28
$ 22  2
$ 22  3
$ 22  4
$ 22  9
$ 22 11
$ 22 12
$ 22 13
$ 22 14
$ 22 15
$ 22 22
$ 22 23
$ 22 29
$ 23  3
$ 23  4
$ 23  6
$ 23  7
$ 23  8
$ 23 11
$ 23 12
$ 23 13
$ 23 15
$ 23 17
$ 23 18
$ 23 19
$ 23 20
$ 23 21
$ 23 24
$ 23 25
$ 23 26
$ 23 27
$ 23 28
$ 24  2
$ 24  5
$ 24  7
$ 24 10
$ 24 11
$ 24 12
$ 24 13
$ 24 16
$ 24 17
$ 24 18
$ 24 22
$ 24 23
$ 24 25
$ 25  1
$ 25  2
$ 25  6
$ 25  7
$ 25  8
$ 25 10
$ 25 11
$ 25 12
$ 25 13
$ 25 14
$ 25 16
$ 25 17
$ 25 18
$ 25 20
$ 25 21
$ 25 24
$ 25 25
$ 25 29
$ 26  2
$ 26  8
$ 26  9
$ 26 13
$ 26 14
$ 26 18
$ 26 19
$ 26 22
$ 26 23
$ 26 24
$ 26 25
$ 26 27
$ 26 29
$ 27  1
$ 27  3
$ 27  7
$ 27 10
$ 27 11
$ 27 12
$ 27 15
$ 27 16
$ 27 20
$ 27 22
$ 27 23
$ 27 26
$ 27 28
$ 27 29
$ 28  1
$ 28  2
$ 28  3
$ 28  4
$ 28  7
$ 28  9
$ 28 11
$ 28 12
$ 28 14
$ 28 17
$ 28 18
$ 28 20
$ 28 21
$ 28 22
$ 28 23
$ 28 24
$ 28 25
$ 28 29
$ 29  2
$ 29  5
$ 29 10
$ 29 11
$ 29 12
$ 29 13
$ 29 14
$ 29 15
$ 29 19
$ 29 21
$ 29 23
$ 29 24
$ 29 28
$ 29 29

